c --- [ banner ] -------------------------------------------------------------
c 
c CaDiCaL Radically Simplified CDCL SAT Solver
c Copyright (c) 2016-2021 A. Biere, M. Fleury, N. Froleyks
c 
c Version 1.5.2 9c38a080b32c28d805e8e6ca21849856b0cda605
c g++ (Ubuntu 7.5.0-3ubuntu1~18.04) 7.5.0 -Wall -Wextra -O3 -DNDEBUG
c Wed Feb 16 23:15:36 EST 2022 Linux fac-vanhoeve01 5.4.0-99-generic x86_64
c 
c --- [ limit ] --------------------------------------------------------------
c 
c setting time limit to 600 seconds real time (due to '-t 600')
c setting conflict limit to 1000000000 conflicts (due to '1000000000')
c 
c --- [ parsing input ] ------------------------------------------------------
c 
c reading DIMACS file from 'ddfwcnfs/wap08a.col_40.cnf'
c opening file to read 'ddfwcnfs/wap08a.col_40.cnf'
c found 'p cnf 74800 3915790' header
c parsed 3915790 clauses in 2.16 seconds process time
c closing file 'ddfwcnfs/wap08a.col_40.cnf'
c after reading 62264655 bytes 59.4 MB
c 
c --- [ options ] ------------------------------------------------------------
c 
c all options are set to their default value
c 
c --- [ solving ] ------------------------------------------------------------
c 
c time measured in process time since initialization
c 
c  seconds   reductions  redundant   irredundant
c          MB    restarts       trail        variables
c           level   conflicts       glue          remaining
c 
c *  2.16 339  0 0   0    0    0  0% 0 3914190 73200 98%
c {  2.19 341  0 0   0    0    0  0% 0 3914190 73200 98%
c -  2.85 341 40 1   0  300  211  5% 33 3914190 73200 98%
c }  2.96 341 39 1   0 1001  651  5% 33 3914190 73200 98%
c [  2.96 341  0 1   0 1001  651  0% 0 3914190 73200 98%
c O  2.96 341 34 1   0 1002  652  7% 28 3914190 73200 98%
c -  4.76 431 43 2   0 1856  938  7% 38 3914190 73200 98%
c ]  4.86 431 44 2   1 3003 1626  7% 39 3914190 73200 98%
c {  4.86 431 39 2   1 3003 1626  5% 33 3914190 73200 98%
c F  4.87 431 39 2   1 3004 1627  5% 33 3914190 73200 98%
c -  6.17 431 97 3   1 4190 1985  7% 33 3914190 73200 98%
c #  9.26 429 85 3   7 6006 3229  8% 33 3914190 73200 98%
c }  9.36 429 77 3  10 7003 3957  8% 33 3914190 73200 98%
c [  9.36 429 44 3  10 7003 3957  7% 39 3914190 73200 98%
c - 10.69 429 45 4  11 7301 2721  8% 39 3914190 73200 98%
c I 10.98 429 48 4  12 10007 4458  8% 39 3914190 73200 98%
c - 12.47 429 981 5  13 11189 3447 16% 46 3914190 73200 98%
c s 13.65 429 949 5  14 11483 3590 17% 48 3914190 73200 98%
c e 20.76 430 949 5  14 11483 3161 17% 48 3262654 66383 89%
c s 22.00 476 949 5  14 11483 3152 17% 48 3262654 66383 89%
c 
c  seconds    reductions   redundant    irredundant
c          MB     restarts        trail         variables
c            level    conflicts       glue           remaining
c 
c ^ 22.63 476 949 5  14 11483 3152 17% 48 3262654 66383 89%
c ] 27.59 462 659 5  15 15004 6080 12% 58 3262654 66383 89%
c { 27.59 462 77 5  15 15004 6080  9% 33 3262654 66383 89%
c B 27.59 462 77 5  15 15008 6084  9% 33 3262654 66383 89%
c - 29.13 463 98 6 151 15856 4562 10% 35 3262654 66383 89%
c W 30.81 463 70 6 182 21009 7258  9% 36 3262654 66383 89%
c - 32.06 462 74 7 199 21135 3994  9% 36 3262654 66383 89%
c - 33.89 462 69 8 317 27167 4476  9% 36 3262654 66383 89%
c F 33.95 462 68 8 320 28010 4889  9% 36 3262654 66383 89%
c } 37.05 462 63 8 321 31008 7138  8% 36 3262654 66383 89%
c [ 37.05 462 659 8 321 31008 7138 12% 58 3262654 66383 89%
c - 38.45 463 521 9 322 33955 6309 12% 56 3262654 66383 89%
c s 38.59 463 521 9 322 33961 5937 12% 56 3262654 66383 89%
c s 43.93 463 521 9 322 33961 5840 12% 56 3262654 66383 89%
c ^ 44.50 463 521 9 322 33961 5840 12% 56 3262654 66383 89%
c B 44.73 463 453 9 324 36011 7153 11% 54 3262654 66383 89%
c - 47.58 465 1275 10 327 41495 8179 25% 78 3262654 66383 89%
c W 49.59 465 1097 10 328 45012 11012 23% 78 3262654 66383 89%
c - 51.43 464 1324 11 329 49790 8930 29% 75 3262654 66383 89%
c O 55.59 464 1255 11 330 55017 13355 35% 86 3262654 66383 89%
c 
c  seconds     reductions    redundant    irredundant
c          MB       restarts        trail         variables
c            level      conflicts       glue           remaining
c 
c - 57.04 466 1113 12 333 58838 9517 31% 82 3262654 66383 89%
c ] 57.45 466 988 12 336 63008 12271 28% 79 3262654 66383 89%
c { 57.45 466 63 12 336 63008 12271  8% 36 3262654 66383 89%
c B 57.72 466 60 12 345 66018 14342  8% 36 3262654 66383 89%
c s 58.21 466 61 12 406 67677 14935  8% 36 3262654 66383 89%
c s 63.71 466 61 12 406 67677 14627  8% 36 3262654 66383 89%
c ^ 64.30 466 61 12 406 67677 14627  8% 36 3262654 66383 89%
c - 65.62 463 60 13 427 68642 8842  8% 36 3262654 66383 89%
c W 71.26 463 54 13 502 78020 13821  9% 37 3262654 66383 89%
c - 72.77 463 58 14 588 79198 8068  9% 37 3262654 66383 89%
c - 74.71 463 53 15 787 90509 7750  9% 37 3262654 66383 89%
c # 74.75 463 53 15 787 91023 7993  9% 37 3262654 66383 89%
c - 76.93 463 50 16 858 102576 10239  8% 37 3262654 66383 89%
c B 80.07 463 49 16 859 105028 11779  8% 37 3262654 66383 89%
c s 81.27 463 50 16 958 112630 17685  8% 37 3262654 66383 89%
c s 86.75 463 50 16 958 112630 17660  8% 37 3262654 66383 89%
c ^ 87.34 463 50 16 958 112630 17660  8% 37 3262654 66383 89%
c - 88.78 464 50 17 959 115395 12643  8% 37 3262654 66383 89%
c W 91.81 464 50 17 971 120032 16391  8% 37 3262654 66383 89%
c } 92.48 464 49 17 983 127008 22143  8% 37 3262654 66383 89%
c 
c  seconds    reductions      redundant    irredundant
c          MB      restarts          trail         variables
c            level     conflicts         glue           remaining
c 
c [ 92.48 464 988 17 983 127008 22143 28% 79 3262654 66383 89%
c - 93.81 465 938 18 983 128968 14763 27% 77 3262654 66383 89%
c B 94.57 465 787 18 988 136034 20291 23% 70 3262654 66383 89%
c - 101.06 469 1161 19 991 143295 16519 28% 88 3262654 66383 89%
c W 105.50 469 1037 19 992 153037 24110 30% 90 3262654 66383 89%
c - 107.55 468 1148 20 992 158378 16163 29% 91 3262654 66383 89%
c s 110.16 468 1465 20 993 168823 24478 33% 100 3262654 66383 89%
c s 115.77 468 1465 20 993 168823 24452 33% 100 3262654 66383 89%
c ^ 116.39 468 1465 20 993 168823 24452 33% 100 3262654 66383 89%
c I 117.09 468 1535 20 995 171038 26399 34% 101 3262654 66383 89%
c - 119.11 471 1629 21 998 174213 17788 34% 102 3262654 66383 89%
c B 125.43 471 1612 21 1006 190039 30829 35% 104 3262654 66383 89%
c - 126.79 470 1643 22 1006 190805 18209 35% 104 3262654 66383 89%
c - 130.71 468 1434 23 1013 208150 18694 33% 101 3262654 66383 89%
c W 134.50 468 1399 23 1014 210041 20128 33% 100 3262654 66383 89%
c - 140.98 467 1263 24 1022 226247 18975 34% 94 3262654 66383 89%
c O 141.41 467 1191 24 1022 231042 21994 32% 92 3262654 66383 89%
c s 142.14 467 1120 24 1023 236253 25812 31% 89 3262654 66383 89%
c w 144.57 467 1120 24 1023 236253 25812 31% 89 3262654 66383 89%
c s 147.92 467 1120 24 1023 236253 25788 31% 89 3262654 66383 89%
c 
c  seconds      reductions       redundant    irredundant
c           MB       restarts           trail         variables
c             level       conflicts         glue           remaining
c 
c - 150.69 466 1009 25 1023 245100 19335 29% 86 3262654 66383 89%
c B 151.61 466 922 25 1024 253047 25227 27% 84 3262654 66383 89%
c ] 151.88 466 1037 25 1024 255009 26700 27% 83 3262654 66383 89%
c { 151.88 466 49 25 1024 255009 26700  8% 37 3262654 66383 89%
c - 154.07 466 50 26 1174 264705 18382  8% 37 3262654 66383 89%
c F 158.04 466 48 26 1299 276048 24812  8% 37 3262654 66383 89%
c - 160.15 465 48 27 1325 285064 18560  8% 37 3262654 66383 89%
c B 161.71 465 46 27 1335 300049 29191  8% 37 3262654 66383 89%
c - 163.55 465 51 28 2859 306178 19887  8% 38 3262654 66383 89%
c W 170.37 465 55 28 7667 325051 34169  8% 39 3262654 66383 89%
c - 172.43 467 57 29 7855 328046 21773  8% 39 3262654 66383 89%
c - 178.79 466 54 30 8027 350670 22191  8% 39 3262654 66383 89%
c # 178.84 466 54 30 8027 351053 22435  8% 39 3262654 66383 89%
c - 182.24 466 52 31 8079 374048 23638  8% 38 3262654 66383 89%
c B 182.68 466 51 31 8079 378055 26711  8% 38 3262654 66383 89%
c - 188.91 466 50 32 8256 398181 21743  8% 38 3262654 66383 89%
c W 196.05 466 49 32 8269 406056 26719  8% 38 3262654 66383 89%
c - 198.90 466 48 33 8311 423065 21464  8% 38 3262654 66383 89%
c F 200.03 466 47 33 8418 435057 28007  8% 38 3262654 66383 89%
c - 202.31 466 46 34 8426 448703 21911  8% 38 3262654 66383 89%
c 
c  seconds    reductions       redundant    irredundant
c           MB     restarts           trail         variables
c            level      conflicts         glue           remaining
c 
c B 206.78 466 45 34 8457 465058 33172  8% 38 3262654 66383 89%
c - 208.96 466 46 35 8956 475096 23433  8% 38 3262654 66383 89%
c W 217.82 466 45 35 9170 496060 35087  8% 38 3262654 66383 89%
c - 219.57 466 44 36 9194 502242 22744  8% 38 3262654 66383 89%
c } 220.40 466 44 36 9225 511012 27758  8% 38 3262654 66383 89%
c [ 220.40 466 1037 36 9225 511012 27758 27% 83 3262654 66383 89%
c W 232.71 466 856 36 9225 528061 39361 24% 76 3262654 66383 89%
c - 234.09 467 836 37 9225 530143 24584 23% 75 3262654 66383 89%
c - 238.14 467 616 38 9238 558798 26920 19% 66 3262654 66383 89%
c I 238.44 467 602 38 9239 561067 28452 19% 66 3262654 66383 89%
c - 249.93 485 2462 39 9250 588207 32577 26% 90 3262654 66383 89%
c B 251.47 485 2521 39 9254 595071 38177 26% 92 3262654 66383 89%
c - 260.91 478 2072 40 9256 618370 32115 29% 97 3262654 66383 89%
c W 271.78 478 1856 40 9262 630074 40919 28% 101 3262654 66383 89%
c - 277.05 478 1693 41 9271 649288 33393 28% 103 3262654 66383 89%
c s 277.28 478 1693 41 9271 649288 33100 28% 103 3262654 66383 89%
c w 280.12 478 1693 41 9271 649288 33096 28% 103 3262654 66383 89%
c O 283.67 478 1453 41 9278 666075 46333 26% 103 3262654 66383 89%
c - 289.75 474 1255 42 9286 680960 33512 24% 96 3262654 66383 89%
c B 292.28 474 1020 42 9287 703077 49282 21% 90 3262654 66383 89%
c 
c  seconds      reductions       redundant    irredundant
c           MB       restarts           trail         variables
c             level       conflicts         glue           remaining
c 
c - 295.48 474 1299 43 9288 713385 33099 22% 96 3262654 66383 89%
c W 313.44 474 2116 43 9289 741078 55477 26% 112 3262654 66383 89%
c - 315.18 482 2011 44 9289 746564 36375 25% 109 3262654 66383 89%
c I 322.44 482 1478 44 9289 780082 61433 22% 98 3262654 66383 89%
c - 323.83 473 1635 45 9289 780497 35455 22% 100 3262654 66383 89%
c - 349.96 558 8824 46 9296 815186 39361 33% 289 3262654 66383 89%
c B 350.68 558 8416 46 9299 820084 43139 32% 280 3262654 66383 89%
c - 356.94 477 6356 47 9312 850628 39031 33% 230 3262654 66383 89%
c W 372.89 477 5765 47 9318 861086 47114 31% 217 3262654 66383 89%
c - 377.17 475 5086 48 9320 886825 37677 32% 185 3262654 66383 89%
c O 378.74 475 4342 48 9330 903087 50020 28% 164 3262654 66383 89%
c - 381.90 470 3543 49 9338 923775 37906 24% 141 3262654 66383 89%
c B 384.18 470 2849 49 9350 946090 51994 20% 121 3262654 66383 89%
c - 396.15 492 3523 50 9351 961480 38348 25% 161 3262654 66383 89%
c W 417.14 492 2744 50 9352 990091 61629 26% 160 3262654 66383 89%
c - 420.59 485 2507 51 9352 999940 41868 26% 157 3262654 66383 89%
c ] 425.76 485 2434 51 9365 1023012 61166 26% 153 3262654 66383 89%
c { 425.76 485 44 51 9365 1023012 61166  8% 38 3262654 66383 89%
c # 427.36 485 45 51 9601 1035092 69050  8% 38 3262654 66383 89%
c - 428.96 479 45 52 9604 1039153 40827  8% 38 3262654 66383 89%
c 
c  seconds    reductions        redundant    irredundant
c           MB     restarts            trail         variables
c            level       conflicts         glue           remaining
c 
c - 437.52 469 43 53 9620 1079118 38715  8% 37 3262654 66383 89%
c B 437.77 469 43 53 9620 1081094 40009  8% 37 3262654 66383 89%
c - 443.89 469 54 54 9778 1119837 40334  8% 36 3262654 66383 89%
c s 444.26 469 54 54 9778 1119837 39387  8% 36 3262654 66383 89%
c w 447.35 469 54 54 9778 1119837 39374  8% 36 3262654 66383 89%
c W 463.05 469 53 54 9976 1128096 43603  8% 36 3262654 66383 89%
c - 470.04 468 50 55 10942 1161310 33455  8% 37 3262654 66383 89%
c F 471.34 468 49 55 11182 1176097 40843  8% 37 3262654 66383 89%
c - 474.97 468 47 56 11269 1203540 34682  8% 37 3262654 66383 89%
c B 477.13 468 45 56 11304 1225100 47968  8% 37 3262654 66383 89%
c - 480.37 469 45 57 11430 1246523 37615  8% 37 3262654 66383 89%
c W 503.25 469 45 57 11445 1275102 55579  7% 36 3262654 66383 89%
c - 506.27 469 44 58 11457 1290259 39362  7% 36 3262654 66383 89%
c # 510.70 469 44 58 11531 1326104 62188  7% 35 3262654 66383 89%
c - 512.60 469 44 59 11537 1334749 40831  7% 35 3262654 66383 89%
c B 516.58 469 41 59 11607 1378105 67515  7% 34 3262654 66383 89%
c - 517.99 469 41 60 11952 1379993 37734  7% 34 3262654 66383 89%
c - 525.93 467 40 61 14345 1425991 29848  7% 35 3262654 66383 89%
c W 544.00 467 40 61 14474 1431106 32287  7% 35 3262654 66383 89%
c - 548.92 468 39 62 14717 1472744 35967  7% 35 3262654 66383 89%
c 
c  seconds    reductions         redundant    irredundant
c           MB      restarts            trail         variables
c            level        conflicts         glue           remaining
c 
c F 550.07 468 39 62 14775 1485107 42924  7% 35 3262654 66383 89%
c - 557.24 470 38 63 14776 1520250 43183  6% 34 3262654 66383 89%
c B 559.07 470 38 63 14808 1540108 57056  6% 33 3262654 66383 89%
c - 562.91 469 38 64 15344 1568510 40575  6% 33 3262654 66383 89%
c W 585.78 469 37 64 15740 1596110 55530  6% 33 3262654 66383 89%
c - 589.00 468 37 65 15938 1617525 38005  6% 34 3262654 66383 89%
c # 595.13 468 37 65 16068 1653111 57359  6% 34 3262654 66383 89%
c - 597.44 468 37 66 16259 1667298 38415  6% 34 3262654 66383 89%
c s 597.65 468 37 66 16259 1667298 37004  6% 34 3262654 66383 89%
c w 600.50 468 37 66 16259 1667298 36989  6% 34 3262654 66383 89%
c } 600.50 468 37 66 16259 1667298 36989  6% 34 3262654 66383 89%
c ? 600.50 468 37 66 16259 1667298 36989  6% 34 3262654 66383 89%
c 
c --- [ result ] -------------------------------------------------------------
c 
c UNKNOWN
c 
c --- [ run-time profiling ] -------------------------------------------------
c 
c process time taken by individual solving procedures
c (percentage relative to process time for solving)
c 
c       480.37   80.28% search
c       184.90   30.90% stable
c       152.86   25.55% walk
c       142.58   23.83% unstable
c       117.97   19.72% simplify
c        29.05    4.86% ternary
c        19.05    3.18% elim
c        17.69    2.96% vivify
c        15.63    2.61% probe
c         4.27    0.71% subsume
c         2.16    0.36% parse
c         0.03    0.00% lucky
c   =================================
c       598.34   99.64% solve
c 
c last line shows process time for solving
c (percentage relative to total process time)
c 
c --- [ statistics ] ---------------------------------------------------------
c 
c chronological:            278931        16.73 %  of conflicts
c conflicts:               1667298      2786.54    per second
c decisions:               2957856      4943.44    per second
c eliminated:                 6817         9.11 %  of all variables
c fixed:                      1600         2.14 %  of all variables
c learned:                 1650358        98.98 %  per conflict
c learned_lits:          250880343       100.00 %  learned literals
c minimized:                     0         0.00 %  learned literals
c shrunken:               94661102        37.73 %  learned literals
c minishrunken:            6577454         2.62 %  learned literals
c propagations:          583770043         0.98 M  per second
c reduced:                 1107782        66.44 %  per conflict
c rephased:                     57     29250.84    interval
c restarts:                  16259       102.55    interval
c stabilizing:                   5        40.90 %  of conflicts
c subsumed:                 505117         4.48 %  of all clauses
c strengthened:              13133         0.12 %  of all clauses
c vivified:                     81         0.00 %  of all clauses
c walked:                       18     92627.67    interval
c weakened:                 724238         2.40    average size
c 
c seconds are measured in process time for solving
c 
c --- [ resources ] ----------------------------------------------------------
c 
c total process time since initialization:       600.50    seconds
c total real time since initialization:          600.53    seconds
c maximum resident set size of process:          657.42    MB
c 
c --- [ shutting down ] ------------------------------------------------------
c 
c exit 0
